\ Model RMP_EVSP
\ LP format - for model browsing. Use MPS format to capture full model detail.
\ Signature: 0x26b20c6766829d30
Minimize
  1e+09 q_0 + 1e+09 q_1 + 1e+09 q_2 + 1e+09 q_3 + 1e+09 q_4 + 1e+09 q_5
   + 1e+09 q_6 + 1e+09 q_7 + 1e+09 q_8 + 1e+09 q_9 + 1e+09 q_10
   + 1e+09 q_11 + 1e+09 q_12 + 1e+09 q_13 + 1e+09 q_14 + 30151.5 a[0]
   + 30212.1 a[1] + 30121.2 a[2] + 30181.8 a[3] + 30151.5 a[4]
   + 30212.1 a[5] + 30000 a[6] + 30090.9 a[7] + 30000 a[8] + 30060.6 a[9]
   + 30000 a[10] + 30151.5 a[11] + 30181.8 a[12] + 30151.5 a[13]
   + 30181.8 a[14] + 30121.2 a[15] + 30000 a[16] + 30000 a[17]
   + 30060.6 a[18] + 30181.8 a[19] + 30000 a[20] + 30030.3 a[21]
   + 30030.3 a[22] + 30121.2 a[23] + 30000 a[24] + 30000 a[25]
   + 30000 a[26] + 30000 a[27] + 30000 a[28] + 30030.3 a[29] + 30000 a[30]
   + 30030.3 a[31] + 30000 a[32] + 30030.3 a[33] + 30121.2 a[34]
   + 30151.5 a[35] + 30000 a[36] + 30030.3 a[37] + 30151.5 a[38]
   + 30090.9 a[39] + 30090.9 a[40] + 30090.9 a[41]
Subject To
 trip_coverage_0: q_0 + a[0] + a[1] + a[2] + a[3] + a[4] + a[5] + a[6]
   + a[7] + a[8] + a[10] + a[14] + a[16] + a[20] + a[21] + a[22] + a[23]
   + a[24] + a[26] + a[27] + a[28] >= 1
 trip_coverage_1: q_1 + a[0] + a[1] + a[2] + a[3] + a[4] + a[5] + a[6]
   + a[7] + a[8] + a[13] + a[14] + a[19] + a[25] + a[34] + a[37] + a[38]
   + a[39] >= 1
 trip_coverage_2: q_2 + a[6] + a[7] + a[8] + a[10] + a[13] + a[14] + a[18]
   + a[22] + a[26] + a[29] + a[40] >= 1
 trip_coverage_3: q_3 + a[6] + a[7] + a[8] + a[10] + a[16] + a[29] + a[30]
   + a[31] + a[32] + a[33] + a[35] + a[36] + a[41] >= 1
 trip_coverage_4: q_4 + a[6] + a[10] + a[17] + a[30] + a[31] + a[32]
   + a[33] + a[34] + a[36] + a[37] >= 1
 trip_coverage_5: q_5 + a[17] + a[18] + a[30] + a[31] + a[36] >= 1
 trip_coverage_6: q_6 + a[8] + a[16] + a[25] + a[30] + a[31] + a[32]
   + a[35] + a[36] + a[38] + a[39] + a[40] >= 1
 trip_coverage_7: q_7 + a[1] + a[5] + a[6] + a[8] + a[10] + a[11] + a[12]
   + a[13] + a[15] + a[18] + a[21] + a[26] + a[35] >= 1
 trip_coverage_8: q_8 + a[0] + a[2] + a[3] + a[4] + a[9] + a[11] + a[12]
   + a[13] + a[14] + a[15] + a[17] + a[19] + a[20] + a[21] + a[24] + a[34]
   + a[35] + a[41] >= 1
 trip_coverage_9: q_9 + a[0] + a[2] + a[4] + a[7] + a[9] + a[11] + a[19]
   + a[24] + a[25] + a[30] + a[31] + a[32] + a[33] + a[34] + a[36] + a[37]
   + a[38] + a[39] + a[40] >= 1
 trip_coverage_10: q_10 + a[0] + a[1] + a[2] + a[3] + a[5] + a[7] + a[9]
   + a[11] + a[12] + a[15] + a[19] + a[20] + a[21] + a[23] + a[24] + a[36]
   + a[37] >= 1
 trip_coverage_11: q_11 + a[0] + a[1] + a[2] + a[3] + a[4] + a[5] + a[9]
   + a[12] + a[13] + a[14] + a[15] + a[16] + a[17] + a[22] + a[41] >= 1
 trip_coverage_12: q_12 + a[0] + a[1] + a[2] + a[3] + a[4] + a[5] + a[9]
   + a[12] + a[15] + a[17] + a[22] + a[23] + a[38] >= 1
 trip_coverage_13: q_13 + a[0] + a[1] + a[2] + a[3] + a[4] + a[9] + a[11]
   + a[16] + a[18] + a[19] + a[20] + a[23] + a[28] + a[35] + a[38] >= 1
 trip_coverage_14: q_14 + a[1] + a[5] + a[18] + a[27] + a[30] + a[31]
   + a[32] + a[33] + a[34] + a[35] + a[37] + a[38] + a[39] + a[40] + a[41]
   >= 1
Bounds
 a[0] <= 1
 a[1] <= 1
 a[2] <= 1
 a[3] <= 1
 a[4] <= 1
 a[5] <= 1
 a[6] <= 1
 a[7] <= 1
 a[8] <= 1
 a[9] <= 1
 a[10] <= 1
 a[11] <= 1
 a[12] <= 1
 a[13] <= 1
 a[14] <= 1
 a[15] <= 1
 a[16] <= 1
 a[17] <= 1
 a[18] <= 1
 a[19] <= 1
 a[20] <= 1
 a[21] <= 1
 a[22] <= 1
 a[23] <= 1
 a[24] <= 1
 a[25] <= 1
 a[26] <= 1
 a[27] <= 1
 a[28] <= 1
 a[29] <= 1
 a[30] <= 1
 a[31] <= 1
 a[32] <= 1
 a[33] <= 1
 a[34] <= 1
 a[35] <= 1
 a[36] <= 1
 a[37] <= 1
 a[38] <= 1
 a[39] <= 1
 a[40] <= 1
 a[41] <= 1
End
